% Parameter file

%%%%%%%%%%%%%%%%%%%%%%%%%
% Fix bound flags by uncommenting a single line (see data.mzn)

WVCP_B	= {                   };
% WVCP_B	= {UB_COLORS          };
% WVCP_B	= {UB_COLORS, UB_SCORE};
% WVCP_B	= {           UB_SCORE};
